Version identifier: 22.1.0.0 | 2022-03-09 | 1a383f8ce
CPXPARAM_Read_DataCheck                          1
1 of 1 MIP starts provided solutions.
MIP start 'm1' defined initial solution with objective 23.0000.
Tried aggregator 4 times.
MIP Presolve eliminated 5586 rows and 1268 columns.
MIP Presolve modified 140 coefficients.
Aggregator did 4599 substitutions.
Reduced MIP has 1204 rows, 4759 columns, and 10707 nonzeros.
Reduced MIP has 4745 binaries, 14 generals, 0 SOSs, and 0 indicators.
Presolve time = 0.03 sec. (39.56 ticks)
Probing fixed 23 vars, tightened 0 bounds.
Probing changed sense of 4 constraints.
Probing time = 0.02 sec. (2.20 ticks)
Tried aggregator 2 times.
Detecting symmetries...
MIP Presolve eliminated 23 rows and 30 columns.
Aggregator did 9 substitutions.
Reduced MIP has 1172 rows, 4720 columns, and 10577 nonzeros.
Reduced MIP has 4706 binaries, 14 generals, 0 SOSs, and 0 indicators.
Presolve time = 0.01 sec. (10.78 ticks)
Probing fixed 2 vars, tightened 0 bounds.
Probing time = 0.01 sec. (2.01 ticks)
Clique table members: 9818.
MIP emphasis: balance optimality and feasibility.
MIP search method: dynamic search.
Parallel mode: deterministic, using up to 8 threads.
Root relaxation solution time = 0.06 sec. (30.90 ticks)

        Nodes                                         Cuts/
   Node  Left     Objective  IInf  Best Integer    Best Bound    ItCnt     Gap

*     0+    0                           23.0000        0.0000           100.00%
      0     0       14.4405   931       23.0000       14.4405     1062   37.22%
      0     0        cutoff             23.0000                   1071    0.00%
Elapsed time = 0.38 sec. (207.51 ticks, tree = 0.01 MB, solutions = 1)

Zero-half cuts applied:  50
Gomory fractional cuts applied:  10

Root node processing (before b&c):
  Real time             =    0.38 sec. (207.88 ticks)
Parallel b&c, 8 threads:
  Real time             =    0.00 sec. (0.00 ticks)
  Sync time (average)   =    0.00 sec.
  Wait time (average)   =    0.00 sec.
                          ------------
Total (root+branch&cut) =    0.38 sec. (207.88 ticks)
